22 3
6 3 4
0 0 0 0 20 2 3 4 5 6 7 8 9 10 11 12 13 14 15 16 17 18 19 20 21
5 2 0 0 3 22 11 20
1 2 0 1 3 22 8 8
1 3 0 0 3 22 18 11
2 3 1 2 1 22
5 3 1 1 2 22 7
5 2 0 2 2 22 17
3 3 1 1 2 22 12
3 3 1 0 2 22 13
4 0 0 2 3 22 16 13
4 2 0 0 1 22
5 1 1 2 1 22
1 3 0 1 1 22
5 0 0 2 4 22 18 17 21
3 1 0 0 1 22
2 1 1 2 1 22
3 1 0 0 1 22
5 2 1 2 1 22
2 0 0 2 1 22
4 1 1 1 1 22
1 3 1 1 1 22
0 0 0 0 0
